16947
1 0 1 0 0 1 0 1 0 0 0 1 0 1 1 1 0 1 0 0 1 0 0 0 0 0 0 1 0 0 
20 11 13 2 20 5 2 5 14 17 15 20 20 20 7 14 14 17 11 11 2 0 27 7 27 20 2 5 5 15 27 11 13 11 20 20 5 15 0 14 0 14 15 14 5 14 0 13 27 14 27 14 14 5 20 20 17 27 11 14 0 5 20 11 11 11 11 0 27 11 20 20 11 0 15 20 15 20 14 5 20 7 13 17 17 17 17 7 20 11 2 5 17 11 7 11 2 14 27 13 20 17 17 11 2 11 7 11 14 14 14 14 2 11 11 27 5 15 5 5 5 20 11 13 20 0 5 15 0 27 0 11 5 27 20 14 7 11 20 17 0 20 20 14 20 27 11 5 2 5 
